
Value of objective function: 82.00000000

Actual values of the variables:
v1                              1
v2                              1
v3                              0
v4                              1
v5                              0
v6                              1
v7                              1
v8                              0
v9                              1
v10                             0
v11                             0
v12                             0
v13                             1
v14                             1
v15                             1
v18                             0
v20                             1
v21                             1
v22                             0
v23                             0
v24                             1
v25                             1
v27                             0
v28                             0
v29                             1
v30                             1
v31                             0
v33                             0
v34                             1
v35                             1
v39                             1
v40                             1
v41                             1
v42                             1
v43                             1
v44                             1
v45                             0
v46                             0
v47                             1
v48                             1
v49                             1
v50                             0
v26                             0
v38                             0
v17                             0
v32                             0
v16                             0
v37                             0
v19                             0
v36                             0
